computational_data/solutions/ER_n30_p020_s4.sol
Optimal - objective value 11.00000000
      9 r_9                         1                       1
     13 r_13                        1                       1
     14 r_14                        1                       1
     16 r_16                        1                       1
     20 r_20                        1                       1
     23 r_23                        1                       1
     30 b_0                         1                       1
     36 b_6                         1                       1
     41 b_11                        1                       1
     51 b_21                        1                       1
     52 b_22                        1                       1
