computational_data/logs/ER_n30_p020_s4.log
Welcome to the CBC MILP Solver 
Version: 2.10.12 
Build Date: Aug 20 2024 

command line - /opt/homebrew/bin/cbc computational_data/lp/ER_n30_p020_s4.lp seconds 10.0 solve solu computational_data/solutions/ER_n30_p020_s4.sol (default strategy 1)
seconds was changed from 1e+100 to 10
Continuous objective value is 8.38267 - 0.00 seconds
Cgl0003I 0 fixed, 0 tightened bounds, 49 strengthened rows, 0 substitutions
Cgl0003I 0 fixed, 0 tightened bounds, 46 strengthened rows, 0 substitutions
Cgl0003I 0 fixed, 0 tightened bounds, 30 strengthened rows, 0 substitutions
Cgl0003I 0 fixed, 0 tightened bounds, 5 strengthened rows, 0 substitutions
Cgl0003I 0 fixed, 0 tightened bounds, 2 strengthened rows, 0 substitutions
Cgl0004I processed model has 211 rows, 60 columns (60 integer (60 of which binary)) and 901 elements
Cutoff increment increased from 1e-05 to 0.9999
Cbc0038I Initial state - 36 integers unsatisfied sum - 8.38267
Cbc0038I Pass   1: suminf.    8.38449 (35) obj. 8.38449 iterations 3
Cbc0038I Pass   2: suminf.    6.71429 (23) obj. 10.8571 iterations 46
Cbc0038I Pass   3: suminf.    0.00000 (0) obj. 12 iterations 34
Cbc0038I Solution found of 12
Cbc0038I Before mini branch and bound, 23 integers at bound fixed and 0 continuous
Cbc0038I Full problem 211 rows 60 columns, reduced to 142 rows 37 columns - 4 fixed gives 16, 7 - ok now
Cbc0038I Full problem 211 rows 60 columns, reduced to 6 rows 3 columns
Cbc0038I Mini branch and bound improved solution from 12 to 11 (0.01 seconds)
Cbc0038I Round again with cutoff of 9.83836
Cbc0038I Pass   4: suminf.    8.38449 (35) obj. 8.38449 iterations 0
Cbc0038I Pass   5: suminf.    6.83836 (24) obj. 9.83836 iterations 37
Cbc0038I Pass   6: suminf.    4.57163 (28) obj. 9.83836 iterations 29
Cbc0038I Pass   7: suminf.    6.63121 (30) obj. 9.83836 iterations 44
Cbc0038I Pass   8: suminf.    5.79795 (24) obj. 9.83836 iterations 17
Cbc0038I Pass   9: suminf.    5.09916 (26) obj. 9.83836 iterations 18
Cbc0038I Pass  10: suminf.    8.83836 (29) obj. 9.83836 iterations 44
Cbc0038I Pass  11: suminf.    6.35979 (32) obj. 9.69312 iterations 35
Cbc0038I Pass  12: suminf.    5.67381 (30) obj. 9.83836 iterations 24
Cbc0038I Pass  13: suminf.    5.60274 (28) obj. 9.83836 iterations 7
Cbc0038I Pass  14: suminf.    7.18113 (27) obj. 9.83836 iterations 39
Cbc0038I Pass  15: suminf.    5.64805 (22) obj. 9.83836 iterations 30
Cbc0038I Pass  16: suminf.    5.64201 (22) obj. 9.83836 iterations 17
Cbc0038I Pass  17: suminf.    6.16164 (27) obj. 9.83836 iterations 35
Cbc0038I Pass  18: suminf.    4.97296 (30) obj. 9.83836 iterations 22
Cbc0038I Pass  19: suminf.    4.85656 (29) obj. 9.83836 iterations 7
Cbc0038I Pass  20: suminf.    5.66767 (30) obj. 9.83836 iterations 34
Cbc0038I Pass  21: suminf.    4.94829 (25) obj. 9.83836 iterations 17
Cbc0038I Pass  22: suminf.    7.97242 (29) obj. 9.83836 iterations 36
Cbc0038I Pass  23: suminf.    6.62630 (24) obj. 9.83836 iterations 31
Cbc0038I Pass  24: suminf.    4.88023 (28) obj. 9.83836 iterations 29
Cbc0038I Pass  25: suminf.    4.58082 (26) obj. 9.83836 iterations 15
Cbc0038I Pass  26: suminf.    8.06525 (29) obj. 9.83836 iterations 48
Cbc0038I Pass  27: suminf.    6.05216 (29) obj. 9.83836 iterations 20
Cbc0038I Pass  28: suminf.    5.42148 (30) obj. 9.83836 iterations 27
Cbc0038I Pass  29: suminf.    5.03287 (30) obj. 9.83836 iterations 15
Cbc0038I Pass  30: suminf.    5.63836 (26) obj. 9.83836 iterations 39
Cbc0038I Pass  31: suminf.    4.32931 (30) obj. 9.83836 iterations 39
Cbc0038I Pass  32: suminf.    8.06805 (33) obj. 9.83836 iterations 55
Cbc0038I Pass  33: suminf.    6.02711 (28) obj. 9.83836 iterations 33
Cbc0038I No solution found this major pass
Cbc0038I Before mini branch and bound, 4 integers at bound fixed and 0 continuous
Cbc0038I Full problem 211 rows 60 columns, reduced to 206 rows 56 columns - 10 fixed gives 6, 4 - ok now
Cbc0038I Mini branch and bound did not improve solution (0.02 seconds)
Cbc0038I After 0.02 seconds - Feasibility pump exiting with objective of 11 - took 0.02 seconds
Cbc0012I Integer solution of 11 found by feasibility pump after 0 iterations and 0 nodes (0.02 seconds)
Cbc0038I Full problem 211 rows 60 columns, reduced to 142 rows 37 columns - 10 fixed gives 5, 3 - ok now
Cbc0031I 9 added rows had average density of 60
Cbc0013I At root node, 9 cuts changed objective from 8.3826715 to 8.7440057 in 100 passes
Cbc0014I Cut generator 0 (Probing) - 0 row cuts average 0.0 elements, 0 column cuts (0 active)  in 0.018 seconds - new frequency is -100
Cbc0014I Cut generator 1 (Gomory) - 772 row cuts average 60.0 elements, 0 column cuts (0 active)  in 0.026 seconds - new frequency is -100
Cbc0014I Cut generator 2 (Knapsack) - 0 row cuts average 0.0 elements, 0 column cuts (0 active)  in 0.003 seconds - new frequency is -100
Cbc0014I Cut generator 3 (Clique) - 0 row cuts average 0.0 elements, 0 column cuts (0 active)  in 0.004 seconds - new frequency is -100
Cbc0014I Cut generator 4 (MixedIntegerRounding2) - 0 row cuts average 0.0 elements, 0 column cuts (0 active)  in 0.017 seconds - new frequency is -100
Cbc0014I Cut generator 5 (FlowCover) - 0 row cuts average 0.0 elements, 0 column cuts (0 active)  in 0.001 seconds - new frequency is -100
Cbc0010I After 0 nodes, 1 on tree, 11 best solution, best possible 8.7440057 (0.18 seconds)
Cbc0001I Search completed - best objective 11, took 4153 iterations and 14 nodes (0.24 seconds)
Cbc0032I Strong branching done 344 times (7807 iterations), fathomed 6 nodes and fixed 2 variables
Cbc0035I Maximum depth 4, 53 variables fixed on reduced cost
Cuts at root node changed objective from 8.38267 to 8.74401
Probing was tried 100 times and created 0 cuts of which 0 were active after adding rounds of cuts (0.018 seconds)
Gomory was tried 100 times and created 772 cuts of which 0 were active after adding rounds of cuts (0.026 seconds)
Knapsack was tried 100 times and created 0 cuts of which 0 were active after adding rounds of cuts (0.003 seconds)
Clique was tried 100 times and created 0 cuts of which 0 were active after adding rounds of cuts (0.004 seconds)
MixedIntegerRounding2 was tried 100 times and created 0 cuts of which 0 were active after adding rounds of cuts (0.017 seconds)
FlowCover was tried 100 times and created 0 cuts of which 0 were active after adding rounds of cuts (0.001 seconds)
TwoMirCuts was tried 1 times and created 0 cuts of which 0 were active after adding rounds of cuts (0.001 seconds)
ZeroHalf was tried 1 times and created 0 cuts of which 0 were active after adding rounds of cuts (0.000 seconds)

Result - Optimal solution found

Objective value:                11.00000000
Enumerated nodes:               14
Total iterations:               4153
Time (CPU seconds):             0.25
Time (Wallclock seconds):       0.25

Total time (CPU seconds):       0.25   (Wallclock seconds):       0.25

